robust/generate/spp_dkp_Lefebvre_et_al_2026/src/shortest_path_8_6.kp
48
212

[0.08 4.11 1.31 1.38 3.65 1.5 3.99 2.06 2.53 1.65 0.52 0.65 2.05 3.37 2.12 2.73 1.55 2.09 0.86 1.88 0.61 0.17 0.38 0.98 2.51 3.02 2.71 2.65 1.54 1.75 1.85 3.13 0.67 3.64 0.17 2.83 0.7 3.56 1.21 3.56 1.32 3.0 4.38 4.23 0.76 1.56]

[51 25 23 10 33 67 78 75 83 33 49 92 36 9 83 63 48 74 13 86 27 42 22 74 83 26 11 21 44 78 8 31 92 89 87 45 92 10 77 21 24 89 59 82 3 71]
