robust/generate/spp_dkp_Lefebvre_et_al_2026/src/shortest_path_8_6.lp
\ Model sp_8_6
\ LP format - for model browsing. Use MPS format to capture full model detail.
\ Signature: 0x19081ce87ffb351f
Minimize
  62.27 y[0,1] + 35 y[0,2] + 68.88 y[0,3] + 17.09 y[0,4] + 60.75 y[0,5]
   + 24.21 y[0,6] + 67.36 y[0,7] + 62.27 y[1,0] + 75.06 y[1,2]
   + 37.2 y[1,3] + 67.18 y[1,4] + 63.41 y[1,6] + 13.34 y[1,7] + 35 y[2,0]
   + 75.06 y[2,1] + 62.43 y[2,3] + 51.62 y[2,4] + 29 y[2,5] + 59.2 y[2,6]
   + 73.76 y[2,7] + 68.88 y[3,0] + 37.2 y[3,1] + 62.43 y[3,2]
   + 53.15 y[3,5] + 25.5 y[3,7] + 17.09 y[4,0] + 67.18 y[4,1]
   + 51.62 y[4,2] + 9.49 y[4,6] + 75 y[4,7] + 60.75 y[5,0] + 29 y[5,2]
   + 53.15 y[5,3] + 73.16 y[5,7] + 24.21 y[6,0] + 63.41 y[6,1]
   + 59.2 y[6,2] + 9.49 y[6,4] + 72.56 y[6,7] + 67.36 y[7,0] + 13.34 y[7,1]
   + 73.76 y[7,2] + 25.5 y[7,3] + 75 y[7,4] + 73.16 y[7,5] + 72.56 y[7,6]
   + 6.227 r[0,1] + 3.5 r[0,2] + 6.888 r[0,3] + 1.709 r[0,4] + 6.075 r[0,5]
   + 2.421 r[0,6] + 6.736 r[0,7] + 6.227 r[1,0] + 7.506 r[1,2]
   + 3.72 r[1,3] + 6.718 r[1,4] + 6.341 r[1,6] + 1.334 r[1,7] + 3.5 r[2,0]
   + 7.506 r[2,1] + 6.243 r[2,3] + 5.162 r[2,4] + 2.9 r[2,5] + 5.92 r[2,6]
   + 7.376 r[2,7] + 6.888 r[3,0] + 3.72 r[3,1] + 6.243 r[3,2]
   + 5.315 r[3,5] + 2.55 r[3,7] + 1.709 r[4,0] + 6.718 r[4,1]
   + 5.162 r[4,2] + 0.949 r[4,6] + 7.5 r[4,7] + 6.075 r[5,0] + 2.9 r[5,2]
   + 5.315 r[5,3] + 7.316 r[5,7] + 2.421 r[6,0] + 6.341 r[6,1]
   + 5.92 r[6,2] + 0.949 r[6,4] + 7.256 r[6,7] + 6.736 r[7,0]
   + 1.334 r[7,1] + 7.376 r[7,2] + 2.55 r[7,3] + 7.5 r[7,4] + 7.316 r[7,5]
   + 7.256 r[7,6]
Subject To
 flow_cons_inner_nodes[0]: - y[0,1] - y[0,2] - y[0,3] - y[0,4] - y[0,5]
   - y[0,6] - y[0,7] + y[1,0] + y[2,0] + y[3,0] + y[4,0] + y[5,0] + y[6,0]
   + y[7,0] = 0
 flow_cons_inner_nodes[1]: y[0,1] - y[1,0] - y[1,2] - y[1,3] - y[1,4]
   - y[1,6] - y[1,7] + y[2,1] + y[3,1] + y[4,1] + y[6,1] + y[7,1] = 0
 flow_cons_inner_nodes[2]: y[0,2] + y[1,2] - y[2,0] - y[2,1] - y[2,3]
   - y[2,4] - y[2,5] - y[2,6] - y[2,7] + y[3,2] + y[4,2] + y[5,2] + y[6,2]
   + y[7,2] = 0
 flow_cons_inner_nodes[3]: y[0,3] + y[1,3] + y[2,3] - y[3,0] - y[3,1]
   - y[3,2] - y[3,5] - y[3,7] + y[5,3] + y[7,3] = 0
 flow_cons_inner_nodes[4]: y[0,4] + y[1,4] + y[2,4] - y[4,0] - y[4,1]
   - y[4,2] - y[4,6] - y[4,7] + y[6,4] + y[7,4] = 0
 flow_cons_inner_nodes[7]: y[0,7] + y[1,7] + y[2,7] + y[3,7] + y[4,7]
   + y[5,7] + y[6,7] - y[7,0] - y[7,1] - y[7,2] - y[7,3] - y[7,4] - y[7,5]
   - y[7,6] = 0
 flow_cons_source: - y[0,5] - y[2,5] - y[3,5] + y[5,0] + y[5,2] + y[5,3]
   + y[5,7] - y[7,5] = 1
 flow_cons_target: y[0,6] + y[1,6] + y[2,6] + y[4,6] - y[6,0] - y[6,1]
   - y[6,2] - y[6,4] - y[6,7] + y[7,6] = 1
 primal_lower: - 0.08 y[0,1] - 4.11 y[0,2] - 1.31 y[0,3] - 1.38 y[0,4]
   - 3.65 y[0,5] - 1.5 y[0,6] - 3.99 y[0,7] - 2.06 y[1,0] - 2.53 y[1,2]
   - 1.65 y[1,3] - 0.52 y[1,4] - 0.65 y[1,6] - 2.05 y[1,7] - 3.37 y[2,0]
   - 2.12 y[2,1] - 2.73 y[2,3] - 1.55 y[2,4] - 2.09 y[2,5] - 0.86 y[2,6]
   - 1.88 y[2,7] - 0.61 y[3,0] - 0.17 y[3,1] - 0.38 y[3,2] - 0.98 y[3,5]
   - 2.51 y[3,7] - 3.02 y[4,0] - 2.71 y[4,1] - 2.65 y[4,2] - 1.54 y[4,6]
   - 1.75 y[4,7] - 1.85 y[5,0] - 3.13 y[5,2] - 0.67 y[5,3] - 3.64 y[5,7]
   - 0.17 y[6,0] - 2.83 y[6,1] - 0.7 y[6,2] - 3.56 y[6,4] - 1.21 y[6,7]
   - 3.56 y[7,0] - 1.32 y[7,1] - 3 y[7,2] - 4.38 y[7,3] - 4.23 y[7,4]
   - 0.76 y[7,5] - 1.56 y[7,6] + 51 u[0,1] + 25 u[0,2] + 23 u[0,3]
   + 10 u[0,4] + 33 u[0,5] + 67 u[0,6] + 78 u[0,7] + 75 u[1,0] + 83 u[1,2]
   + 33 u[1,3] + 49 u[1,4] + 92 u[1,6] + 36 u[1,7] + 9 u[2,0] + 83 u[2,1]
   + 63 u[2,3] + 48 u[2,4] + 74 u[2,5] + 13 u[2,6] + 86 u[2,7] + 27 u[3,0]
   + 42 u[3,1] + 22 u[3,2] + 74 u[3,5] + 83 u[3,7] + 26 u[4,0] + 11 u[4,1]
   + 21 u[4,2] + 44 u[4,6] + 78 u[4,7] + 8 u[5,0] + 31 u[5,2] + 92 u[5,3]
   + 89 u[5,7] + 87 u[6,0] + 45 u[6,1] + 92 u[6,2] + 10 u[6,4] + 77 u[6,7]
   + 21 u[7,0] + 24 u[7,1] + 89 u[7,2] + 59 u[7,3] + 82 u[7,4] + 3 u[7,5]
   + 71 u[7,6] <= 212
 mccormick1[0,1]: - u[0,1] + r[0,1] <= 0
 mccormick1[0,2]: - u[0,2] + r[0,2] <= 0
 mccormick1[0,3]: - u[0,3] + r[0,3] <= 0
 mccormick1[0,4]: - u[0,4] + r[0,4] <= 0
 mccormick1[0,5]: - u[0,5] + r[0,5] <= 0
 mccormick1[0,6]: - u[0,6] + r[0,6] <= 0
 mccormick1[0,7]: - u[0,7] + r[0,7] <= 0
 mccormick1[1,0]: - u[1,0] + r[1,0] <= 0
 mccormick1[1,2]: - u[1,2] + r[1,2] <= 0
 mccormick1[1,3]: - u[1,3] + r[1,3] <= 0
 mccormick1[1,4]: - u[1,4] + r[1,4] <= 0
 mccormick1[1,6]: - u[1,6] + r[1,6] <= 0
 mccormick1[1,7]: - u[1,7] + r[1,7] <= 0
 mccormick1[2,0]: - u[2,0] + r[2,0] <= 0
 mccormick1[2,1]: - u[2,1] + r[2,1] <= 0
 mccormick1[2,3]: - u[2,3] + r[2,3] <= 0
 mccormick1[2,4]: - u[2,4] + r[2,4] <= 0
 mccormick1[2,5]: - u[2,5] + r[2,5] <= 0
 mccormick1[2,6]: - u[2,6] + r[2,6] <= 0
 mccormick1[2,7]: - u[2,7] + r[2,7] <= 0
 mccormick1[3,0]: - u[3,0] + r[3,0] <= 0
 mccormick1[3,1]: - u[3,1] + r[3,1] <= 0
 mccormick1[3,2]: - u[3,2] + r[3,2] <= 0
 mccormick1[3,5]: - u[3,5] + r[3,5] <= 0
 mccormick1[3,7]: - u[3,7] + r[3,7] <= 0
 mccormick1[4,0]: - u[4,0] + r[4,0] <= 0
 mccormick1[4,1]: - u[4,1] + r[4,1] <= 0
 mccormick1[4,2]: - u[4,2] + r[4,2] <= 0
 mccormick1[4,6]: - u[4,6] + r[4,6] <= 0
 mccormick1[4,7]: - u[4,7] + r[4,7] <= 0
 mccormick1[5,0]: - u[5,0] + r[5,0] <= 0
 mccormick1[5,2]: - u[5,2] + r[5,2] <= 0
 mccormick1[5,3]: - u[5,3] + r[5,3] <= 0
 mccormick1[5,7]: - u[5,7] + r[5,7] <= 0
 mccormick1[6,0]: - u[6,0] + r[6,0] <= 0
 mccormick1[6,1]: - u[6,1] + r[6,1] <= 0
 mccormick1[6,2]: - u[6,2] + r[6,2] <= 0
 mccormick1[6,4]: - u[6,4] + r[6,4] <= 0
 mccormick1[6,7]: - u[6,7] + r[6,7] <= 0
 mccormick1[7,0]: - u[7,0] + r[7,0] <= 0
 mccormick1[7,1]: - u[7,1] + r[7,1] <= 0
 mccormick1[7,2]: - u[7,2] + r[7,2] <= 0
 mccormick1[7,3]: - u[7,3] + r[7,3] <= 0
 mccormick1[7,4]: - u[7,4] + r[7,4] <= 0
 mccormick1[7,5]: - u[7,5] + r[7,5] <= 0
 mccormick1[7,6]: - u[7,6] + r[7,6] <= 0
 mccormick2[0,1]: - y[0,1] + r[0,1] <= 0
 mccormick2[0,2]: - y[0,2] + r[0,2] <= 0
 mccormick2[0,3]: - y[0,3] + r[0,3] <= 0
 mccormick2[0,4]: - y[0,4] + r[0,4] <= 0
 mccormick2[0,5]: - y[0,5] + r[0,5] <= 0
 mccormick2[0,6]: - y[0,6] + r[0,6] <= 0
 mccormick2[0,7]: - y[0,7] + r[0,7] <= 0
 mccormick2[1,0]: - y[1,0] + r[1,0] <= 0
 mccormick2[1,2]: - y[1,2] + r[1,2] <= 0
 mccormick2[1,3]: - y[1,3] + r[1,3] <= 0
 mccormick2[1,4]: - y[1,4] + r[1,4] <= 0
 mccormick2[1,6]: - y[1,6] + r[1,6] <= 0
 mccormick2[1,7]: - y[1,7] + r[1,7] <= 0
 mccormick2[2,0]: - y[2,0] + r[2,0] <= 0
 mccormick2[2,1]: - y[2,1] + r[2,1] <= 0
 mccormick2[2,3]: - y[2,3] + r[2,3] <= 0
 mccormick2[2,4]: - y[2,4] + r[2,4] <= 0
 mccormick2[2,5]: - y[2,5] + r[2,5] <= 0
 mccormick2[2,6]: - y[2,6] + r[2,6] <= 0
 mccormick2[2,7]: - y[2,7] + r[2,7] <= 0
 mccormick2[3,0]: - y[3,0] + r[3,0] <= 0
 mccormick2[3,1]: - y[3,1] + r[3,1] <= 0
 mccormick2[3,2]: - y[3,2] + r[3,2] <= 0
 mccormick2[3,5]: - y[3,5] + r[3,5] <= 0
 mccormick2[3,7]: - y[3,7] + r[3,7] <= 0
 mccormick2[4,0]: - y[4,0] + r[4,0] <= 0
 mccormick2[4,1]: - y[4,1] + r[4,1] <= 0
 mccormick2[4,2]: - y[4,2] + r[4,2] <= 0
 mccormick2[4,6]: - y[4,6] + r[4,6] <= 0
 mccormick2[4,7]: - y[4,7] + r[4,7] <= 0
 mccormick2[5,0]: - y[5,0] + r[5,0] <= 0
 mccormick2[5,2]: - y[5,2] + r[5,2] <= 0
 mccormick2[5,3]: - y[5,3] + r[5,3] <= 0
 mccormick2[5,7]: - y[5,7] + r[5,7] <= 0
 mccormick2[6,0]: - y[6,0] + r[6,0] <= 0
 mccormick2[6,1]: - y[6,1] + r[6,1] <= 0
 mccormick2[6,2]: - y[6,2] + r[6,2] <= 0
 mccormick2[6,4]: - y[6,4] + r[6,4] <= 0
 mccormick2[6,7]: - y[6,7] + r[6,7] <= 0
 mccormick2[7,0]: - y[7,0] + r[7,0] <= 0
 mccormick2[7,1]: - y[7,1] + r[7,1] <= 0
 mccormick2[7,2]: - y[7,2] + r[7,2] <= 0
 mccormick2[7,3]: - y[7,3] + r[7,3] <= 0
 mccormick2[7,4]: - y[7,4] + r[7,4] <= 0
 mccormick2[7,5]: - y[7,5] + r[7,5] <= 0
 mccormick2[7,6]: - y[7,6] + r[7,6] <= 0
 mccormick3[0,1]: - y[0,1] - u[0,1] + r[0,1] >= -1
 mccormick3[0,2]: - y[0,2] - u[0,2] + r[0,2] >= -1
 mccormick3[0,3]: - y[0,3] - u[0,3] + r[0,3] >= -1
 mccormick3[0,4]: - y[0,4] - u[0,4] + r[0,4] >= -1
 mccormick3[0,5]: - y[0,5] - u[0,5] + r[0,5] >= -1
 mccormick3[0,6]: - y[0,6] - u[0,6] + r[0,6] >= -1
 mccormick3[0,7]: - y[0,7] - u[0,7] + r[0,7] >= -1
 mccormick3[1,0]: - y[1,0] - u[1,0] + r[1,0] >= -1
 mccormick3[1,2]: - y[1,2] - u[1,2] + r[1,2] >= -1
 mccormick3[1,3]: - y[1,3] - u[1,3] + r[1,3] >= -1
 mccormick3[1,4]: - y[1,4] - u[1,4] + r[1,4] >= -1
 mccormick3[1,6]: - y[1,6] - u[1,6] + r[1,6] >= -1
 mccormick3[1,7]: - y[1,7] - u[1,7] + r[1,7] >= -1
 mccormick3[2,0]: - y[2,0] - u[2,0] + r[2,0] >= -1
 mccormick3[2,1]: - y[2,1] - u[2,1] + r[2,1] >= -1
 mccormick3[2,3]: - y[2,3] - u[2,3] + r[2,3] >= -1
 mccormick3[2,4]: - y[2,4] - u[2,4] + r[2,4] >= -1
 mccormick3[2,5]: - y[2,5] - u[2,5] + r[2,5] >= -1
 mccormick3[2,6]: - y[2,6] - u[2,6] + r[2,6] >= -1
 mccormick3[2,7]: - y[2,7] - u[2,7] + r[2,7] >= -1
 mccormick3[3,0]: - y[3,0] - u[3,0] + r[3,0] >= -1
 mccormick3[3,1]: - y[3,1] - u[3,1] + r[3,1] >= -1
 mccormick3[3,2]: - y[3,2] - u[3,2] + r[3,2] >= -1
 mccormick3[3,5]: - y[3,5] - u[3,5] + r[3,5] >= -1
 mccormick3[3,7]: - y[3,7] - u[3,7] + r[3,7] >= -1
 mccormick3[4,0]: - y[4,0] - u[4,0] + r[4,0] >= -1
 mccormick3[4,1]: - y[4,1] - u[4,1] + r[4,1] >= -1
 mccormick3[4,2]: - y[4,2] - u[4,2] + r[4,2] >= -1
 mccormick3[4,6]: - y[4,6] - u[4,6] + r[4,6] >= -1
 mccormick3[4,7]: - y[4,7] - u[4,7] + r[4,7] >= -1
 mccormick3[5,0]: - y[5,0] - u[5,0] + r[5,0] >= -1
 mccormick3[5,2]: - y[5,2] - u[5,2] + r[5,2] >= -1
 mccormick3[5,3]: - y[5,3] - u[5,3] + r[5,3] >= -1
 mccormick3[5,7]: - y[5,7] - u[5,7] + r[5,7] >= -1
 mccormick3[6,0]: - y[6,0] - u[6,0] + r[6,0] >= -1
 mccormick3[6,1]: - y[6,1] - u[6,1] + r[6,1] >= -1
 mccormick3[6,2]: - y[6,2] - u[6,2] + r[6,2] >= -1
 mccormick3[6,4]: - y[6,4] - u[6,4] + r[6,4] >= -1
 mccormick3[6,7]: - y[6,7] - u[6,7] + r[6,7] >= -1
 mccormick3[7,0]: - y[7,0] - u[7,0] + r[7,0] >= -1
 mccormick3[7,1]: - y[7,1] - u[7,1] + r[7,1] >= -1
 mccormick3[7,2]: - y[7,2] - u[7,2] + r[7,2] >= -1
 mccormick3[7,3]: - y[7,3] - u[7,3] + r[7,3] >= -1
 mccormick3[7,4]: - y[7,4] - u[7,4] + r[7,4] >= -1
 mccormick3[7,5]: - y[7,5] - u[7,5] + r[7,5] >= -1
 mccormick3[7,6]: - y[7,6] - u[7,6] + r[7,6] >= -1
Bounds
Binaries
 y[0,1] y[0,2] y[0,3] y[0,4] y[0,5] y[0,6] y[0,7] y[1,0] y[1,2] y[1,3]
 y[1,4] y[1,6] y[1,7] y[2,0] y[2,1] y[2,3] y[2,4] y[2,5] y[2,6] y[2,7]
 y[3,0] y[3,1] y[3,2] y[3,5] y[3,7] y[4,0] y[4,1] y[4,2] y[4,6] y[4,7]
 y[5,0] y[5,2] y[5,3] y[5,7] y[6,0] y[6,1] y[6,2] y[6,4] y[6,7] y[7,0]
 y[7,1] y[7,2] y[7,3] y[7,4] y[7,5] y[7,6] u[0,1] u[0,2] u[0,3] u[0,4]
 u[0,5] u[0,6] u[0,7] u[1,0] u[1,2] u[1,3] u[1,4] u[1,6] u[1,7] u[2,0]
 u[2,1] u[2,3] u[2,4] u[2,5] u[2,6] u[2,7] u[3,0] u[3,1] u[3,2] u[3,5]
 u[3,7] u[4,0] u[4,1] u[4,2] u[4,6] u[4,7] u[5,0] u[5,2] u[5,3] u[5,7]
 u[6,0] u[6,1] u[6,2] u[6,4] u[6,7] u[7,0] u[7,1] u[7,2] u[7,3] u[7,4]
 u[7,5] u[7,6] r[0,1] r[0,2] r[0,3] r[0,4] r[0,5] r[0,6] r[0,7] r[1,0]
 r[1,2] r[1,3] r[1,4] r[1,6] r[1,7] r[2,0] r[2,1] r[2,3] r[2,4] r[2,5]
 r[2,6] r[2,7] r[3,0] r[3,1] r[3,2] r[3,5] r[3,7] r[4,0] r[4,1] r[4,2]
 r[4,6] r[4,7] r[5,0] r[5,2] r[5,3] r[5,7] r[6,0] r[6,1] r[6,2] r[6,4]
 r[6,7] r[7,0] r[7,1] r[7,2] r[7,3] r[7,4] r[7,5] r[7,6]
End
